NAME: tsp-b-16
TYPE: TSP
COMMENT: min_cost = 977.11
DIMENSION: 16
EDGE_WEIGHT_TYPE: EUC_2D
NODE_COORD_SECTION
1 58 228
2 25 193
3 75 133
4 77 149
5 136 249
6 251 231
7 166 140
8 215 184
9 15 63
10 4 116
11 33 84
12 39 66
13 197 23
14 252 99
15 248 114
16 204 117
EOF
